NAME : obs.obs
TIME : 2020-10-29 14:49:39
COMMENT : hello world
DIMENSION : 32
OBSTACLE_SECTION
0 73.4261 18.9516
1 27.8726 19.1532
2 27.8726 17.9435
3 27.5896 20.7661
4 72.8603 16.5323
5 73.1432 22.3790
6 73.9920 45.5645
7 73.9920 47.7823
8 73.9920 49.7984
9 72.5773 69.9597
10 72.8603 72.3790
11 72.8603 74.7984
12 31.2679 78.4274
13 31.5508 73.5887
14 29.5702 69.5565
15 25.6090 39.7177
16 24.1943 43.7500
17 24.4773 47.3790
18 46.5467 33.2661
19 42.5855 33.2661
20 39.7561 33.0645
21 45.4149 63.3065
22 41.4538 62.9032
23 38.0585 62.9032
24 12.8767 30.0403
25 8.9155 30.0403
26 5.8031 30.0403
27 15.7061 65.3226
28 11.1790 63.9113
29 7.2178 62.9032
30 48.2443 47.7823
31 48.8102 49.1935
EOF
